# Solution for model r10_t9_m4_7
# Finished Task: 9 / 9
# Makespan: 551.0, Total Distance: 659.0, Total Time: 0.0364
# R O S F
0 0 11 0.0 0.0
1 1 17 0.0 0.0
2 2 12 0.0 0.0
3 3 13 0.0 0.0
4 4 -1 0.0 0.0
5 5 -1 0.0 0.0
6 6 -1 0.0 0.0
7 7 -1 0.0 0.0
8 8 -1 0.0 0.0
9 9 -1 0.0 0.0
10 1 15 443.0 463.0
11 0 14 293.0 313.0
12 2 18 317.0 338.0
13 3 -1 427.0 461.0
14 0 16 416.0 443.0
15 1 -1 495.0 517.0
16 0 -1 517.0 551.0
17 1 10 256.0 281.0
18 2 -1 463.0 495.0
